# Solution for model asexual reproduction_srl_ilp
# Objective value = 4.4115698594100428e+00
Z_253_1_0 0
Z_253_1_1 0
Z_253_1_2 1
Z_253_1_3 0
Z_253_1_4 0
Z_260_0_0 0
Z_260_0_1 0
Z_260_0_2 1
Z_260_0_3 0
Z_260_0_4 0
Z_370_0_0 0
Z_370_0_1 0
Z_370_0_2 1
Z_370_0_3 0
Z_370_0_4 0
Z_250_0_0 0
Z_250_0_1 0
Z_250_0_2 1
Z_250_0_3 0
Z_250_0_4 0
Z_34_0_0 0
Z_34_0_1 0
Z_34_0_2 1
Z_34_0_3 0
Z_34_0_4 0
